45 6
8 5 21 44 31 12 28 0 24 26 23 6 30 7 32 0 16 17 11 42 22 18 25 0 20 41 34 9 33 29 43 37 0 39 3 40 10 14 35 38 15 0 13 4 19 27 45 2 36 

1760

Route #1: 8 5 21 44 31 12 28 
Route #2: 24 26 23 6 30 7 32 
Route #3: 16 17 11 42 22 18 25 
Route #4: 20 41 34 9 33 29 43 37 
Route #5: 39 3 40 10 14 35 38 15 
Route #6: 13 4 19 27 45 2 36 